g9 0 1 0 0 20170614 0 4 0 240	# problem heart8ls
 8 0 1 0 0	# vars, constraints, objectives, ranges, eqns
 0 1	# nonlinear constraints, objectives
 0 0	# network constraints: nonlinear, linear
 0 8 0	# nonlinear vars in constraints, objectives, both
 0 0 0 1	# linear network variables; functions; arith, flags
 0 0 0 0 0	# discrete variables: binary, integer, nonlinear (b,c,o)
 0 8	# nonzeros in Jacobian, gradients
 0 0	# max name lengths: constraints, variables
 0 0 0 0 0	# common exprs: b,c,o,c1,o1
b
3
3
3
3
3
3
3
3
x6
1 1
3 1
4 1
5 1
6 1
7 1
O0 0
o54
8
o2
o54
3
n0.69
v0
v1
o54
3
n0.69
v0
v1
o2
o54
3
n0.044
v2
v3
o54
3
n0.044
v2
v3
o2
o0
n1.57
o1
o1
o0
o2
v4
v0
o2
v5
v1
o2
v6
v2
o2
v7
v3
o0
n1.57
o1
o1
o0
o2
v4
v0
o2
v5
v1
o2
v6
v2
o2
v7
v3
o2
o54
5
n1.31
o2
v6
v0
o2
v7
v1
o2
v4
v2
o2
v5
v3
o54
5
n1.31
o2
v6
v0
o2
v7
v1
o2
v4
v2
o2
v5
v3
o2
o0
n2.65
o1
o0
o1
o2
v0
o1
o5
v4
n2
o5
v6
n2
o2
o2
o2
n2
v2
v4
v6
o2
v1
o1
o5
v5
n2
o5
v7
n2
o2
o2
o2
n2
v3
v5
v7
o0
n2.65
o1
o0
o1
o2
v0
o1
o5
v4
n2
o5
v6
n2
o2
o2
o2
n2
v2
v4
v6
o2
v1
o1
o5
v5
n2
o5
v7
n2
o2
o2
o2
n2
v3
v5
v7
o2
o0
n-2
o54
4
o2
v2
o1
o5
v4
n2
o5
v6
n2
o2
o2
o2
n2
v0
v4
v6
o2
v3
o1
o5
v5
n2
o5
v7
n2
o2
o2
o2
n2
v1
v5
v7
o0
n-2
o54
4
o2
v2
o1
o5
v4
n2
o5
v6
n2
o2
o2
o2
n2
v0
v4
v6
o2
v3
o1
o5
v5
n2
o5
v7
n2
o2
o2
o2
n2
v1
v5
v7
o2
o54
5
n12.6
o2
o2
v0
v4
o0
o5
v4
n2
o2
n-3
o5
v6
n2
o2
o2
v2
v6
o0
o5
v6
n2
o2
n-3
o5
v4
n2
o2
o2
v1
v5
o0
o5
v5
n2
o2
n-3
o5
v7
n2
o2
o2
v3
v7
o0
o5
v7
n2
o2
n-3
o5
v5
n2
o54
5
n12.6
o2
o2
v0
v4
o0
o5
v4
n2
o2
n-3
o5
v6
n2
o2
o2
v2
v6
o0
o5
v6
n2
o2
n-3
o5
v4
n2
o2
o2
v1
v5
o0
o5
v5
n2
o2
n-3
o5
v7
n2
o2
o2
v3
v7
o0
o5
v7
n2
o2
n-3
o5
v5
n2
o2
o0
n-9.48
o1
o0
o1
o2
o2
v2
v4
o0
o5
v4
n2
o2
n-3
o5
v6
n2
o2
o2
v0
v6
o0
o5
v6
n2
o2
n-3
o5
v4
n2
o2
o2
v3
v5
o0
o5
v5
n2
o2
n-3
o5
v7
n2
o2
o2
v1
v7
o0
o5
v7
n2
o2
n-3
o5
v5
n2
o0
n-9.48
o1
o0
o1
o2
o2
v2
v4
o0
o5
v4
n2
o2
n-3
o5
v6
n2
o2
o2
v0
v6
o0
o5
v6
n2
o2
n-3
o5
v4
n2
o2
o2
v3
v5
o0
o5
v5
n2
o2
n-3
o5
v7
n2
o2
o2
v1
v7
o0
o5
v7
n2
o2
n-3
o5
v5
n2
k7
0
0
0
0
0
0
0
G0 8
0 0
1 0
2 0
3 0
4 0
5 0
6 0
7 0
